% File represents an instance of a Composite Structure problem to be solved by a CP framework
% Created on 2025-03-25 14:05:14.946
T = 60;
n = 25;
m = 40;
edges = [(1, 2),
(6, 7),
(12, 11),
(16, 17),
(21, 22),
(3, 2),
(7, 8),
(12, 13),
(17, 18),
(23, 22),
(3, 4),
(8, 9),
(13, 14),
(18, 19),
(24, 23),
(4, 5),
(10, 9),
(14, 15),
(19, 20),
(25, 24),
(6, 1),
(6, 11),
(16, 11),
(21, 16),
(7, 2),
(7, 12),
(12, 17),
(22, 17),
(8, 3),
(13, 8),
(13, 18),
(23, 18),
(4, 9),
(14, 9),
(14, 19),
(24, 19),
(5, 10),
(10, 15),
(15, 20),
(25, 20)];
counts = [|2, 14, 13, 26,
|2, 14, 12, 23,
|2, 16, 13, 24,
|2, 16, 12, 24,
|2, 16, 11, 24,
|3, 16, 15, 26,
|3, 16, 15, 25,
|2, 16, 14, 24,
|2, 14, 10, 20,
|2, 16, 10, 24,
|3, 14, 9, 24,
|3, 16, 15, 24,
|2, 16, 15, 24,
|2, 16, 15, 23,
|2, 16, 10, 23,
|3, 17, 10, 25,
|3, 16, 10, 24,
|2, 16, 10, 24,
|2, 16, 10, 23,
|2, 16, 10, 22,
|6, 17, 10, 25,
|4, 16, 10, 24,
|5, 16, 10, 24,
|6, 16, 10, 24,
|6, 16, 13, 24|];
